50 10016

286
269
63
174
12
370
101
72
331
215
192
451
241
73
99
275
432
281
235
302
126
225
441
264
349
128
146
429
149
490
266
32
291
79
389
140
390
429
142
121
224
265
496
330
495
231
482
133
249
115
